c status 21 1469274441203
c status 18 1469274441203
s td 19 18 36
b 1 1 2 18 14 22 27
b 2 36 34 14 20 28 33
b 3 35 12 19 26 27 33
b 4 6 3 4 15 25 27
b 5 23 5 22 25 32 33
b 6 24 16 11 21 27 32
b 7 31 13 12 17 22 28
b 8 30 2 4 9 29 33
b 9 7 10 9 21 25 28
b 10 8 10 11 14 26 29
b 11 34 18 11 14 17 20 25 28 33
b 12 3 4 5 15 17 19 25 27 29
b 13 13 12 15 17 20 22 26 28 32
b 14 16 10 11 15 17 21 27 32 33
b 15 2 4 18 9 14 17 21 22 26 27 29 33
b 16 12 5 9 11 15 17 19 20 22 26 27 28 32 33
b 17 10 9 11 14 15 17 19 21 22 25 26 27 28 29 32 33
b 18 4 18 5 9 11 14 15 17 19 20 21 22 25 26 27 29 33
b 19 18 5 9 11 14 15 17 19 20 21 22 25 26 27 28 29 32 33
1 15
15 18
18 19
19 17
19 16
16 13
18 12
19 11
17 14
13 7
12 4
11 2
15 8
14 6
19 5
17 9
17 10
16 3
